100
32
13
1
3
21
9
23
6
4
20
19
5
8
27
10
7
13
18
1
1
8
8
5
9
7
3
13
1
13
16
26
4
12
9
3
10
7
2
7
10
8
17
31
19
7
8
11
9
5
2
1
1
2
10
11
9
21
2
5
17
1
1
3
16
12
21
1
3
3
18
17
19
2
3
24
15
3
28
3
6
18
8
5
3
2
9
7
4
17
17
7
8
22
2
2
4
3
2
2
3
8